g3 1 1 0	# problem optctrl3
 118 80 1 0 79	# vars, constraints, objectives, ranges, eqns
 40 1	# nonlinear constraints, objectives
 0 0	# network constraints: nonlinear, linear
 117 78 78	# nonlinear vars in constraints, objectives, both
 0 0 0 1	# linear network variables; functions; arith, flags
 0 0 0 0 0	# discrete variables: binary, integer, nonlinear (b,c,o)
 350 78	# nonzeros in Jacobian, gradients
 0 0	# max name lengths: constraints, variables
 0 0 0 0 0	# common exprs: b,c,o,c1,o1
b
3
3
3
3
3
3
3
3
3
3
3
3
3
3
3
3
3
3
3
3
3
3
3
3
3
3
3
3
3
3
3
3
3
3
3
3
3
3
3
3
3
3
3
3
3
3
3
3
3
3
3
3
3
3
3
3
3
3
3
3
3
3
3
3
3
3
3
3
3
3
3
3
3
3
3
3
3
3
3
3
3
3
3
3
3
3
3
3
3
3
3
3
3
3
3
3
3
3
3
3
3
3
3
3
3
3
3
3
3
3
3
3
3
3
3
3
3
3
x39
78 -1
79 -1
80 -1
81 -1
82 -1
83 -1
84 -1
85 -1
86 -1
87 -1
88 -1
89 -1
90 -1
91 -1
92 -1
93 -1
94 -1
95 -1
96 -1
97 -1
98 -1
99 -1
100 -1
101 -1
102 -1
103 -1
104 -1
105 -1
106 -1
107 -1
108 -1
109 -1
110 -1
111 -1
112 -1
113 -1
114 -1
115 -1
116 -1
r
1 100
4 -0.04
4 0
4 0
4 0
4 0
4 0
4 0
4 0
4 0
4 0
4 0
4 0
4 0
4 0
4 0
4 0
4 0
4 0
4 0
4 0
4 0
4 0
4 0
4 0
4 0
4 0
4 0
4 0
4 0
4 0
4 0
4 0
4 0
4 0
4 0
4 0
4 0
4 0
4 0
4 -0.04
4 10
4 0
4 0
4 0
4 0
4 0
4 0
4 0
4 0
4 0
4 0
4 0
4 0
4 0
4 0
4 0
4 0
4 0
4 0
4 0
4 0
4 0
4 0
4 0
4 0
4 0
4 0
4 0
4 0
4 0
4 0
4 0
4 0
4 0
4 0
4 0
4 0
4 0
4 0
C0
o16
o54
78
o2
o2
n0.5
v0
v0
o2
o2
n0.5
v1
v1
o2
o2
n0.5
v2
v2
o2
o2
n0.5
v3
v3
o2
o2
n0.5
v4
v4
o2
o2
n0.5
v5
v5
o2
o2
n0.5
v6
v6
o2
o2
n0.5
v7
v7
o2
o2
n0.5
v8
v8
o2
o2
n0.5
v9
v9
o2
o2
n0.5
v10
v10
o2
o2
n0.5
v11
v11
o2
o2
n0.5
v12
v12
o2
o2
n0.5
v13
v13
o2
o2
n0.5
v14
v14
o2
o2
n0.5
v15
v15
o2
o2
n0.5
v16
v16
o2
o2
n0.5
v17
v17
o2
o2
n0.5
v18
v18
o2
o2
n0.5
v19
v19
o2
o2
n0.5
v20
v20
o2
o2
n0.5
v21
v21
o2
o2
n0.5
v22
v22
o2
o2
n0.5
v23
v23
o2
o2
n0.5
v24
v24
o2
o2
n0.5
v25
v25
o2
o2
n0.5
v26
v26
o2
o2
n0.5
v27
v27
o2
o2
n0.5
v28
v28
o2
o2
n0.5
v29
v29
o2
o2
n0.5
v30
v30
o2
o2
n0.5
v31
v31
o2
o2
n0.5
v32
v32
o2
o2
n0.5
v33
v33
o2
o2
n0.5
v34
v34
o2
o2
n0.5
v35
v35
o2
o2
n0.5
v36
v36
o2
o2
n0.5
v37
v37
o2
o2
n0.5
v38
v38
o2
o2
n1e+06
o0
n-0.2
v39
o0
n-0.2
v39
o2
o2
n1e+06
o0
n-0.2
v40
o0
n-0.2
v40
o2
o2
n1e+06
o0
n-0.2
v41
o0
n-0.2
v41
o2
o2
n1e+06
o0
n-0.2
v42
o0
n-0.2
v42
o2
o2
n1e+06
o0
n-0.2
v43
o0
n-0.2
v43
o2
o2
n1e+06
o0
n-0.2
v44
o0
n-0.2
v44
o2
o2
n1e+06
o0
n-0.2
v45
o0
n-0.2
v45
o2
o2
n1e+06
o0
n-0.2
v46
o0
n-0.2
v46
o2
o2
n1e+06
o0
n-0.2
v47
o0
n-0.2
v47
o2
o2
n1e+06
o0
n-0.2
v48
o0
n-0.2
v48
o2
o2
n1e+06
o0
n-0.2
v49
o0
n-0.2
v49
o2
o2
n1e+06
o0
n-0.2
v50
o0
n-0.2
v50
o2
o2
n1e+06
o0
n-0.2
v51
o0
n-0.2
v51
o2
o2
n1e+06
o0
n-0.2
v52
o0
n-0.2
v52
o2
o2
n1e+06
o0
n-0.2
v53
o0
n-0.2
v53
o2
o2
n1e+06
o0
n-0.2
v54
o0
n-0.2
v54
o2
o2
n1e+06
o0
n-0.2
v55
o0
n-0.2
v55
o2
o2
n1e+06
o0
n-0.2
v56
o0
n-0.2
v56
o2
o2
n1e+06
o0
n-0.2
v57
o0
n-0.2
v57
o2
o2
n1e+06
o0
n-0.2
v58
o0
n-0.2
v58
o2
o2
n1e+06
o0
n-0.2
v59
o0
n-0.2
v59
o2
o2
n1e+06
o0
n-0.2
v60
o0
n-0.2
v60
o2
o2
n1e+06
o0
n-0.2
v61
o0
n-0.2
v61
o2
o2
n1e+06
o0
n-0.2
v62
o0
n-0.2
v62
o2
o2
n1e+06
o0
n-0.2
v63
o0
n-0.2
v63
o2
o2
n1e+06
o0
n-0.2
v64
o0
n-0.2
v64
o2
o2
n1e+06
o0
n-0.2
v65
o0
n-0.2
v65
o2
o2
n1e+06
o0
n-0.2
v66
o0
n-0.2
v66
o2
o2
n1e+06
o0
n-0.2
v67
o0
n-0.2
v67
o2
o2
n1e+06
o0
n-0.2
v68
o0
n-0.2
v68
o2
o2
n1e+06
o0
n-0.2
v69
o0
n-0.2
v69
o2
o2
n1e+06
o0
n-0.2
v70
o0
n-0.2
v70
o2
o2
n1e+06
o0
n-0.2
v71
o0
n-0.2
v71
o2
o2
n1e+06
o0
n-0.2
v72
o0
n-0.2
v72
o2
o2
n1e+06
o0
n-0.2
v73
o0
n-0.2
v73
o2
o2
n1e+06
o0
n-0.2
v74
o0
n-0.2
v74
o2
o2
n1e+06
o0
n-0.2
v75
o0
n-0.2
v75
o2
o2
n1e+06
o0
n-0.2
v76
o0
n-0.2
v76
o2
o2
n1e+06
o0
n-0.2
v77
o0
n-0.2
v77
C1
o2
o2
n0.01
v78
v78
C2
o2
o2
n0.01
v79
v79
C3
o2
o2
n0.01
v80
v80
C4
o2
o2
n0.01
v81
v81
C5
o2
o2
n0.01
v82
v82
C6
o2
o2
n0.01
v83
v83
C7
o2
o2
n0.01
v84
v84
C8
o2
o2
n0.01
v85
v85
C9
o2
o2
n0.01
v86
v86
C10
o2
o2
n0.01
v87
v87
C11
o2
o2
n0.01
v88
v88
C12
o2
o2
n0.01
v89
v89
C13
o2
o2
n0.01
v90
v90
C14
o2
o2
n0.01
v91
v91
C15
o2
o2
n0.01
v92
v92
C16
o2
o2
n0.01
v93
v93
C17
o2
o2
n0.01
v94
v94
C18
o2
o2
n0.01
v95
v95
C19
o2
o2
n0.01
v96
v96
C20
o2
o2
n0.01
v97
v97
C21
o2
o2
n0.01
v98
v98
C22
o2
o2
n0.01
v99
v99
C23
o2
o2
n0.01
v100
v100
C24
o2
o2
n0.01
v101
v101
C25
o2
o2
n0.01
v102
v102
C26
o2
o2
n0.01
v103
v103
C27
o2
o2
n0.01
v104
v104
C28
o2
o2
n0.01
v105
v105
C29
o2
o2
n0.01
v106
v106
C30
o2
o2
n0.01
v107
v107
C31
o2
o2
n0.01
v108
v108
C32
o2
o2
n0.01
v109
v109
C33
o2
o2
n0.01
v110
v110
C34
o2
o2
n0.01
v111
v111
C35
o2
o2
n0.01
v112
v112
C36
o2
o2
n0.01
v113
v113
C37
o2
o2
n0.01
v114
v114
C38
o2
o2
n0.01
v115
v115
C39
o2
o2
n0.01
v116
v116
C40
n0
C41
n0
C42
n0
C43
n0
C44
n0
C45
n0
C46
n0
C47
n0
C48
n0
C49
n0
C50
n0
C51
n0
C52
n0
C53
n0
C54
n0
C55
n0
C56
n0
C57
n0
C58
n0
C59
n0
C60
n0
C61
n0
C62
n0
C63
n0
C64
n0
C65
n0
C66
n0
C67
n0
C68
n0
C69
n0
C70
n0
C71
n0
C72
n0
C73
n0
C74
n0
C75
n0
C76
n0
C77
n0
C78
n0
C79
n0
O0 0
o54
79
o2
o2
n0.5
v0
v0
o2
o2
n0.5
v1
v1
o2
o2
n0.5
v2
v2
o2
o2
n0.5
v3
v3
o2
o2
n0.5
v4
v4
o2
o2
n0.5
v5
v5
o2
o2
n0.5
v6
v6
o2
o2
n0.5
v7
v7
o2
o2
n0.5
v8
v8
o2
o2
n0.5
v9
v9
o2
o2
n0.5
v10
v10
o2
o2
n0.5
v11
v11
o2
o2
n0.5
v12
v12
o2
o2
n0.5
v13
v13
o2
o2
n0.5
v14
v14
o2
o2
n0.5
v15
v15
o2
o2
n0.5
v16
v16
o2
o2
n0.5
v17
v17
o2
o2
n0.5
v18
v18
o2
o2
n0.5
v19
v19
o2
o2
n0.5
v20
v20
o2
o2
n0.5
v21
v21
o2
o2
n0.5
v22
v22
o2
o2
n0.5
v23
v23
o2
o2
n0.5
v24
v24
o2
o2
n0.5
v25
v25
o2
o2
n0.5
v26
v26
o2
o2
n0.5
v27
v27
o2
o2
n0.5
v28
v28
o2
o2
n0.5
v29
v29
o2
o2
n0.5
v30
v30
o2
o2
n0.5
v31
v31
o2
o2
n0.5
v32
v32
o2
o2
n0.5
v33
v33
o2
o2
n0.5
v34
v34
o2
o2
n0.5
v35
v35
o2
o2
n0.5
v36
v36
o2
o2
n0.5
v37
v37
o2
o2
n0.5
v38
v38
o2
o2
n1e+06
o0
n-0.2
v39
o0
n-0.2
v39
o2
o2
n1e+06
o0
n-0.2
v40
o0
n-0.2
v40
o2
o2
n1e+06
o0
n-0.2
v41
o0
n-0.2
v41
o2
o2
n1e+06
o0
n-0.2
v42
o0
n-0.2
v42
o2
o2
n1e+06
o0
n-0.2
v43
o0
n-0.2
v43
o2
o2
n1e+06
o0
n-0.2
v44
o0
n-0.2
v44
o2
o2
n1e+06
o0
n-0.2
v45
o0
n-0.2
v45
o2
o2
n1e+06
o0
n-0.2
v46
o0
n-0.2
v46
o2
o2
n1e+06
o0
n-0.2
v47
o0
n-0.2
v47
o2
o2
n1e+06
o0
n-0.2
v48
o0
n-0.2
v48
o2
o2
n1e+06
o0
n-0.2
v49
o0
n-0.2
v49
o2
o2
n1e+06
o0
n-0.2
v50
o0
n-0.2
v50
o2
o2
n1e+06
o0
n-0.2
v51
o0
n-0.2
v51
o2
o2
n1e+06
o0
n-0.2
v52
o0
n-0.2
v52
o2
o2
n1e+06
o0
n-0.2
v53
o0
n-0.2
v53
o2
o2
n1e+06
o0
n-0.2
v54
o0
n-0.2
v54
o2
o2
n1e+06
o0
n-0.2
v55
o0
n-0.2
v55
o2
o2
n1e+06
o0
n-0.2
v56
o0
n-0.2
v56
o2
o2
n1e+06
o0
n-0.2
v57
o0
n-0.2
v57
o2
o2
n1e+06
o0
n-0.2
v58
o0
n-0.2
v58
o2
o2
n1e+06
o0
n-0.2
v59
o0
n-0.2
v59
o2
o2
n1e+06
o0
n-0.2
v60
o0
n-0.2
v60
o2
o2
n1e+06
o0
n-0.2
v61
o0
n-0.2
v61
o2
o2
n1e+06
o0
n-0.2
v62
o0
n-0.2
v62
o2
o2
n1e+06
o0
n-0.2
v63
o0
n-0.2
v63
o2
o2
n1e+06
o0
n-0.2
v64
o0
n-0.2
v64
o2
o2
n1e+06
o0
n-0.2
v65
o0
n-0.2
v65
o2
o2
n1e+06
o0
n-0.2
v66
o0
n-0.2
v66
o2
o2
n1e+06
o0
n-0.2
v67
o0
n-0.2
v67
o2
o2
n1e+06
o0
n-0.2
v68
o0
n-0.2
v68
o2
o2
n1e+06
o0
n-0.2
v69
o0
n-0.2
v69
o2
o2
n1e+06
o0
n-0.2
v70
o0
n-0.2
v70
o2
o2
n1e+06
o0
n-0.2
v71
o0
n-0.2
v71
o2
o2
n1e+06
o0
n-0.2
v72
o0
n-0.2
v72
o2
o2
n1e+06
o0
n-0.2
v73
o0
n-0.2
v73
o2
o2
n1e+06
o0
n-0.2
v74
o0
n-0.2
v74
o2
o2
n1e+06
o0
n-0.2
v75
o0
n-0.2
v75
o2
o2
n1e+06
o0
n-0.2
v76
o0
n-0.2
v76
o2
o2
n1e+06
o0
n-0.2
v77
o0
n-0.2
v77
n100
k117
4
8
12
16
20
24
28
32
36
40
44
48
52
56
60
64
68
72
76
80
84
88
92
96
100
104
108
112
116
120
124
128
132
136
140
144
148
152
154
156
158
160
162
164
166
168
170
172
174
176
178
180
182
184
186
188
190
192
194
196
198
200
202
204
206
208
210
212
214
216
218
220
222
224
226
228
230
232
235
238
241
244
247
250
253
256
259
262
265
268
271
274
277
280
283
286
289
292
295
298
301
304
307
310
313
316
319
322
325
328
331
334
337
340
343
346
349
J0 78
0 0
1 0
2 0
3 0
4 0
5 0
6 0
7 0
8 0
9 0
10 0
11 0
12 0
13 0
14 0
15 0
16 0
17 0
18 0
19 0
20 0
21 0
22 0
23 0
24 0
25 0
26 0
27 0
28 0
29 0
30 0
31 0
32 0
33 0
34 0
35 0
36 0
37 0
38 0
39 0
40 0
41 0
42 0
43 0
44 0
45 0
46 0
47 0
48 0
49 0
50 0
51 0
52 0
53 0
54 0
55 0
56 0
57 0
58 0
59 0
60 0
61 0
62 0
63 0
64 0
65 0
66 0
67 0
68 0
69 0
70 0
71 0
72 0
73 0
74 0
75 0
76 0
77 0
J1 3
39 -0.2
78 -1
79 1
J2 4
0 0.004
40 -0.2
79 -1
80 1
J3 4
1 0.004
41 -0.2
80 -1
81 1
J4 4
2 0.004
42 -0.2
81 -1
82 1
J5 4
3 0.004
43 -0.2
82 -1
83 1
J6 4
4 0.004
44 -0.2
83 -1
84 1
J7 4
5 0.004
45 -0.2
84 -1
85 1
J8 4
6 0.004
46 -0.2
85 -1
86 1
J9 4
7 0.004
47 -0.2
86 -1
87 1
J10 4
8 0.004
48 -0.2
87 -1
88 1
J11 4
9 0.004
49 -0.2
88 -1
89 1
J12 4
10 0.004
50 -0.2
89 -1
90 1
J13 4
11 0.004
51 -0.2
90 -1
91 1
J14 4
12 0.004
52 -0.2
91 -1
92 1
J15 4
13 0.004
53 -0.2
92 -1
93 1
J16 4
14 0.004
54 -0.2
93 -1
94 1
J17 4
15 0.004
55 -0.2
94 -1
95 1
J18 4
16 0.004
56 -0.2
95 -1
96 1
J19 4
17 0.004
57 -0.2
96 -1
97 1
J20 4
18 0.004
58 -0.2
97 -1
98 1
J21 4
19 0.004
59 -0.2
98 -1
99 1
J22 4
20 0.004
60 -0.2
99 -1
100 1
J23 4
21 0.004
61 -0.2
100 -1
101 1
J24 4
22 0.004
62 -0.2
101 -1
102 1
J25 4
23 0.004
63 -0.2
102 -1
103 1
J26 4
24 0.004
64 -0.2
103 -1
104 1
J27 4
25 0.004
65 -0.2
104 -1
105 1
J28 4
26 0.004
66 -0.2
105 -1
106 1
J29 4
27 0.004
67 -0.2
106 -1
107 1
J30 4
28 0.004
68 -0.2
107 -1
108 1
J31 4
29 0.004
69 -0.2
108 -1
109 1
J32 4
30 0.004
70 -0.2
109 -1
110 1
J33 4
31 0.004
71 -0.2
110 -1
111 1
J34 4
32 0.004
72 -0.2
111 -1
112 1
J35 4
33 0.004
73 -0.2
112 -1
113 1
J36 4
34 0.004
74 -0.2
113 -1
114 1
J37 4
35 0.004
75 -0.2
114 -1
115 1
J38 4
36 0.004
76 -0.2
115 -1
116 1
J39 3
37 0.004
77 -0.2
116 -1
J40 2
78 1
117 -0.2
J41 2
0 1
78 -0.2
J42 3
0 -1
1 1
79 -0.2
J43 3
1 -1
2 1
80 -0.2
J44 3
2 -1
3 1
81 -0.2
J45 3
3 -1
4 1
82 -0.2
J46 3
4 -1
5 1
83 -0.2
J47 3
5 -1
6 1
84 -0.2
J48 3
6 -1
7 1
85 -0.2
J49 3
7 -1
8 1
86 -0.2
J50 3
8 -1
9 1
87 -0.2
J51 3
9 -1
10 1
88 -0.2
J52 3
10 -1
11 1
89 -0.2
J53 3
11 -1
12 1
90 -0.2
J54 3
12 -1
13 1
91 -0.2
J55 3
13 -1
14 1
92 -0.2
J56 3
14 -1
15 1
93 -0.2
J57 3
15 -1
16 1
94 -0.2
J58 3
16 -1
17 1
95 -0.2
J59 3
17 -1
18 1
96 -0.2
J60 3
18 -1
19 1
97 -0.2
J61 3
19 -1
20 1
98 -0.2
J62 3
20 -1
21 1
99 -0.2
J63 3
21 -1
22 1
100 -0.2
J64 3
22 -1
23 1
101 -0.2
J65 3
23 -1
24 1
102 -0.2
J66 3
24 -1
25 1
103 -0.2
J67 3
25 -1
26 1
104 -0.2
J68 3
26 -1
27 1
105 -0.2
J69 3
27 -1
28 1
106 -0.2
J70 3
28 -1
29 1
107 -0.2
J71 3
29 -1
30 1
108 -0.2
J72 3
30 -1
31 1
109 -0.2
J73 3
31 -1
32 1
110 -0.2
J74 3
32 -1
33 1
111 -0.2
J75 3
33 -1
34 1
112 -0.2
J76 3
34 -1
35 1
113 -0.2
J77 3
35 -1
36 1
114 -0.2
J78 3
36 -1
37 1
115 -0.2
J79 3
37 -1
38 1
116 -0.2
G0 78
0 0
1 0
2 0
3 0
4 0
5 0
6 0
7 0
8 0
9 0
10 0
11 0
12 0
13 0
14 0
15 0
16 0
17 0
18 0
19 0
20 0
21 0
22 0
23 0
24 0
25 0
26 0
27 0
28 0
29 0
30 0
31 0
32 0
33 0
34 0
35 0
36 0
37 0
38 0
39 0
40 0
41 0
42 0
43 0
44 0
45 0
46 0
47 0
48 0
49 0
50 0
51 0
52 0
53 0
54 0
55 0
56 0
57 0
58 0
59 0
60 0
61 0
62 0
63 0
64 0
65 0
66 0
67 0
68 0
69 0
70 0
71 0
72 0
73 0
74 0
75 0
76 0
77 0
